Bruniera/ragionamento automatico/progetto/benchmark/asp/hard2.lp
start(0).
limit(6).
n(50).
strada(0,1,16).
strada(0,2,13).
strada(0,3,14).
strada(0,4,16).
strada(0,5,11).
strada(0,6,5).
strada(0,9,0).
strada(0,10,10).
strada(0,11,11).
strada(0,16,13).
strada(0,18,5).
strada(0,20,0).
strada(0,21,11).
strada(0,22,3).
strada(0,23,17).
strada(0,24,3).
strada(0,25,2).
strada(0,27,0).
strada(0,29,3).
strada(0,30,18).
strada(0,36,19).
strada(0,37,19).
strada(0,39,9).
strada(0,41,10).
strada(0,44,20).
strada(0,48,20).
strada(0,49,0).
strada(1,0,0).
strada(1,9,2).
strada(1,12,10).
strada(1,14,5).
strada(1,15,11).
strada(1,18,11).
strada(1,19,6).
strada(1,21,9).
strada(1,24,14).
strada(1,32,19).
strada(1,33,3).
strada(1,37,6).
strada(1,41,16).
strada(1,42,13).
strada(1,44,14).
strada(1,45,15).
strada(1,48,14).
strada(1,49,6).
strada(2,0,18).
strada(2,4,18).
strada(2,5,1).
strada(2,6,3).
strada(2,7,2).
strada(2,9,4).
strada(2,10,7).
strada(2,11,9).
strada(2,12,11).
strada(2,13,14).
strada(2,14,4).
strada(2,15,10).
strada(2,17,17).
strada(2,19,16).
strada(2,24,19).
strada(2,32,9).
strada(2,34,9).
strada(2,35,17).
strada(2,36,20).
strada(2,37,9).
strada(2,39,12).
strada(2,40,6).
strada(2,41,17).
strada(2,46,18).
strada(3,2,12).
strada(3,4,5).
strada(3,5,9).
strada(3,9,5).
strada(3,10,13).
strada(3,11,10).
strada(3,16,3).
strada(3,17,13).
strada(3,18,1).
strada(3,23,1).
strada(3,24,20).
strada(3,25,19).
strada(3,29,15).
strada(3,31,14).
strada(3,35,8).
strada(3,36,4).
strada(3,37,6).
strada(3,38,17).
strada(3,40,10).
strada(3,41,1).
strada(3,47,3).
strada(4,0,0).
strada(4,2,19).
strada(4,3,18).
strada(4,6,0).
strada(4,10,0).
strada(4,14,2).
strada(4,15,15).
strada(4,17,16).
strada(4,18,16).
strada(4,21,10).
strada(4,25,3).
strada(4,26,1).
strada(4,27,14).
strada(4,29,16).
strada(4,30,3).
strada(4,35,9).
strada(4,36,15).
strada(4,38,14).
strada(4,43,6).
strada(4,45,5).
strada(4,46,14).
strada(4,48,13).
strada(5,4,2).
strada(5,6,9).
strada(5,12,18).
strada(5,15,11).
strada(5,16,1).
strada(5,19,9).
strada(5,23,19).
strada(5,26,1).
strada(5,29,16).
strada(5,32,11).
strada(5,34,11).
strada(5,35,7).
strada(5,37,12).
strada(5,40,16).
strada(5,42,12).
strada(5,44,9).
strada(5,47,13).
strada(5,48,16).
strada(6,0,20).
strada(6,1,4).
strada(6,2,2).
strada(6,4,9).
strada(6,5,19).
strada(6,9,1).
strada(6,10,11).
strada(6,14,4).
strada(6,15,17).
strada(6,20,7).
strada(6,24,14).
strada(6,25,20).
strada(6,26,20).
strada(6,27,11).
strada(6,32,6).
strada(6,34,6).
strada(6,35,4).
strada(6,36,19).
strada(6,37,10).
strada(6,38,16).
strada(6,39,4).
strada(6,42,14).
strada(6,44,17).
strada(6,45,9).
strada(6,46,10).
strada(7,0,3).
strada(7,2,12).
strada(7,3,18).
strada(7,4,11).
strada(7,5,16).
strada(7,13,12).
strada(7,14,11).
strada(7,15,18).
strada(7,17,4).
strada(7,18,7).
strada(7,24,18).
strada(7,25,12).
strada(7,31,14).
strada(7,32,13).
strada(7,33,0).
strada(7,34,18).
strada(7,35,10).
strada(7,39,6).
strada(7,40,9).
strada(7,41,7).
strada(7,45,1).
strada(7,46,11).
strada(7,48,0).
strada(7,49,12).
strada(8,2,11).
strada(8,5,18).
strada(8,6,15).
strada(8,13,4).
strada(8,14,20).
strada(8,16,3).
strada(8,21,15).
strada(8,22,15).
strada(8,27,13).
strada(8,29,19).
strada(8,30,0).
strada(8,31,1).
strada(8,33,8).
strada(8,35,16).
strada(8,36,13).
strada(8,37,2).
strada(8,38,19).
strada(8,42,7).
strada(8,44,3).
strada(8,45,14).
strada(8,47,12).
strada(8,48,6).
strada(9,0,9).
strada(9,1,20).
strada(9,7,6).
strada(9,10,12).
strada(9,12,15).
strada(9,14,12).
strada(9,17,7).
strada(9,22,18).
strada(9,23,17).
strada(9,25,0).
strada(9,29,2).
strada(9,30,4).
strada(9,31,17).
strada(9,34,18).
strada(9,35,19).
strada(9,39,17).
strada(9,40,8).
strada(9,41,3).
strada(9,42,8).
strada(9,46,16).
strada(9,47,0).
strada(9,48,17).
strada(9,49,3).
strada(10,1,3).
strada(10,4,20).
strada(10,6,5).
strada(10,7,8).
strada(10,12,4).
strada(10,20,10).
strada(10,25,14).
strada(10,26,9).
strada(10,29,4).
strada(10,30,19).
strada(10,31,14).
strada(10,32,15).
strada(10,35,8).
strada(10,36,11).
strada(10,40,2).
strada(10,41,16).
strada(10,46,20).
strada(10,47,8).
strada(10,49,14).
strada(11,0,18).
strada(11,3,0).
strada(11,6,0).
strada(11,7,15).
strada(11,8,3).
strada(11,9,14).
strada(11,10,19).
strada(11,13,6).
strada(11,15,8).
strada(11,17,18).
strada(11,18,7).
strada(11,19,13).
strada(11,22,14).
strada(11,23,2).
strada(11,24,6).
strada(11,25,18).
strada(11,28,16).
strada(11,29,9).
strada(11,30,0).
strada(11,33,18).
strada(11,34,20).
strada(11,36,2).
strada(11,39,7).
strada(11,40,7).
strada(11,41,3).
strada(11,42,14).
strada(11,45,13).
strada(11,46,6).
strada(11,47,19).
strada(11,48,16).
strada(12,0,15).
strada(12,1,15).
strada(12,2,11).
strada(12,3,15).
strada(12,6,9).
strada(12,7,10).
strada(12,8,14).
strada(12,14,11).
strada(12,15,0).
strada(12,26,20).
strada(12,28,12).
strada(12,29,4).
strada(12,30,16).
strada(12,33,2).
strada(12,34,9).
strada(12,37,5).
strada(12,38,7).
strada(12,39,10).
strada(12,41,18).
strada(12,43,13).
strada(12,48,16).
strada(13,0,7).
strada(13,3,20).
strada(13,4,8).
strada(13,5,15).
strada(13,7,0).
strada(13,9,11).
strada(13,11,3).
strada(13,12,10).
strada(13,14,5).
strada(13,16,18).
strada(13,17,1).
strada(13,21,12).
strada(13,22,9).
strada(13,23,0).
strada(13,25,9).
strada(13,27,14).
strada(13,31,0).
strada(13,32,0).
strada(13,33,17).
strada(13,35,3).
strada(13,37,20).
strada(13,38,12).
strada(13,39,19).
strada(13,43,20).
strada(13,44,9).
strada(13,45,9).
strada(13,47,4).
strada(13,48,9).
strada(14,2,11).
strada(14,3,18).
strada(14,4,9).
strada(14,9,6).
strada(14,10,12).
strada(14,13,3).
strada(14,20,4).
strada(14,21,15).
strada(14,23,5).
strada(14,24,4).
strada(14,26,5).
strada(14,28,1).
strada(14,29,9).
strada(14,30,5).
strada(14,35,20).
strada(14,38,9).
strada(14,39,4).
strada(14,41,8).
strada(14,43,9).
strada(14,44,5).
strada(15,4,12).
strada(15,9,2).
strada(15,11,5).
strada(15,12,15).
strada(15,13,8).
strada(15,16,13).
strada(15,17,10).
strada(15,20,7).
strada(15,21,14).
strada(15,22,6).
strada(15,26,13).
strada(15,27,16).
strada(15,28,11).
strada(15,32,5).
strada(15,34,18).
strada(15,36,16).
strada(15,37,6).
strada(15,41,3).
strada(15,47,7).
strada(16,0,0).
strada(16,2,20).
strada(16,4,0).
strada(16,7,12).
strada(16,8,12).
strada(16,9,5).
strada(16,10,18).
strada(16,11,15).
strada(16,12,2).
strada(16,13,17).
strada(16,15,9).
strada(16,17,11).
strada(16,18,12).
strada(16,21,13).
strada(16,23,17).
strada(16,25,10).
strada(16,32,8).
strada(16,33,5).
strada(16,34,13).
strada(16,37,12).
strada(16,38,4).
strada(16,41,20).
strada(16,43,15).
strada(16,44,18).
strada(16,45,18).
strada(16,46,17).
strada(16,47,15).
strada(16,48,15).
strada(17,0,1).
strada(17,8,14).
strada(17,9,4).
strada(17,10,1).
strada(17,12,0).
strada(17,24,0).
strada(17,28,14).
strada(17,30,11).
strada(17,31,13).
strada(17,32,9).
strada(17,33,9).
strada(17,34,0).
strada(17,35,6).
strada(17,36,5).
strada(17,39,3).
strada(17,41,9).
strada(17,43,12).
strada(17,45,7).
strada(17,49,6).
strada(18,0,12).
strada(18,2,3).
strada(18,3,1).
strada(18,5,8).
strada(18,6,16).
strada(18,8,18).
strada(18,9,12).
strada(18,12,16).
strada(18,17,3).
strada(18,22,10).
strada(18,23,6).
strada(18,24,1).
strada(18,25,1).
strada(18,27,8).
strada(18,28,16).
strada(18,29,7).
strada(18,30,5).
strada(18,32,5).
strada(18,33,12).
strada(18,38,1).
strada(18,39,2).
strada(18,40,14).
strada(18,42,11).
strada(18,48,5).
strada(18,49,16).
strada(19,4,17).
strada(19,7,6).
strada(19,10,12).
strada(19,11,16).
strada(19,15,10).
strada(19,17,2).
strada(19,21,10).
strada(19,23,8).
strada(19,24,0).
strada(19,25,3).
strada(19,26,20).
strada(19,27,7).
strada(19,28,4).
strada(19,31,8).
strada(19,33,16).
strada(19,36,13).
strada(19,40,13).
strada(19,42,20).
strada(19,45,20).
strada(19,46,7).
strada(19,47,9).
strada(19,48,10).
strada(20,0,7).
strada(20,3,20).
strada(20,4,14).
strada(20,8,20).
strada(20,12,11).
strada(20,14,12).
strada(20,15,16).
strada(20,16,7).
strada(20,21,16).
strada(20,26,0).
strada(20,27,19).
strada(20,34,5).
strada(20,38,5).
strada(20,39,15).
strada(20,41,17).
strada(20,43,20).
strada(20,45,5).
strada(20,48,2).
strada(20,49,6).
strada(21,2,14).
strada(21,12,8).
strada(21,13,20).
strada(21,14,6).
strada(21,15,5).
strada(21,16,11).
strada(21,17,3).
strada(21,22,14).
strada(21,24,14).
strada(21,25,0).
strada(21,28,7).
strada(21,29,11).
strada(21,33,6).
strada(21,36,5).
strada(21,37,19).
strada(21,39,3).
strada(21,41,0).
strada(21,42,20).
strada(21,44,4).
strada(21,46,17).
strada(21,47,13).
strada(21,49,14).
strada(22,0,2).
strada(22,3,3).
strada(22,4,4).
strada(22,7,5).
strada(22,8,9).
strada(22,9,15).
strada(22,10,4).
strada(22,13,20).
strada(22,17,12).
strada(22,25,9).
strada(22,27,0).
strada(22,29,10).
strada(22,32,4).
strada(22,33,12).
strada(22,35,18).
strada(22,36,19).
strada(22,38,17).
strada(22,40,18).
strada(22,43,9).
strada(22,44,14).
strada(22,49,11).
strada(23,1,5).
strada(23,4,17).
strada(23,6,0).
strada(23,9,19).
strada(23,11,0).
strada(23,13,17).
strada(23,15,2).
strada(23,17,8).
strada(23,19,19).
strada(23,22,11).
strada(23,25,7).
strada(23,29,12).
strada(23,30,4).
strada(23,31,12).
strada(23,32,13).
strada(23,33,14).
strada(23,35,5).
strada(23,38,3).
strada(23,39,7).
strada(23,42,20).
strada(23,43,8).
strada(23,44,5).
strada(23,45,4).
strada(24,1,13).
strada(24,3,15).
strada(24,4,19).
strada(24,7,12).
strada(24,8,0).
strada(24,9,11).
strada(24,10,11).
strada(24,13,14).
strada(24,15,7).
strada(24,16,15).
strada(24,19,4).
strada(24,21,7).
strada(24,23,9).
strada(24,26,19).
strada(24,28,5).
strada(24,34,17).
strada(24,35,20).
strada(24,40,18).
strada(24,41,1).
strada(24,44,20).
strada(24,45,0).
strada(24,47,3).
strada(24,48,4).
strada(25,4,7).
strada(25,7,4).
strada(25,13,9).
strada(25,15,0).
strada(25,16,16).
strada(25,20,14).
strada(25,21,11).
strada(25,22,1).
strada(25,29,7).
strada(25,31,1).
strada(25,34,13).
strada(25,37,17).
strada(25,39,9).
strada(25,40,0).
strada(25,41,10).
strada(25,42,8).
strada(25,46,20).
strada(25,49,13).
strada(26,4,1).
strada(26,7,10).
strada(26,11,3).
strada(26,13,20).
strada(26,16,9).
strada(26,17,4).
strada(26,18,11).
strada(26,21,10).
strada(26,24,19).
strada(26,27,10).
strada(26,30,11).
strada(26,33,18).
strada(26,34,8).
strada(26,36,12).
strada(26,37,6).
strada(26,39,9).
strada(26,40,14).
strada(26,41,17).
strada(26,42,12).
strada(26,44,19).
strada(26,45,9).
strada(26,46,16).
strada(26,47,14).
strada(26,48,12).
strada(27,2,5).
strada(27,8,17).
strada(27,9,1).
strada(27,10,3).
strada(27,11,1).
strada(27,13,1).
strada(27,15,0).
strada(27,16,2).
strada(27,19,9).
strada(27,20,7).
strada(27,22,6).
strada(27,23,16).
strada(27,25,8).
strada(27,28,11).
strada(27,29,8).
strada(27,31,15).
strada(27,36,17).
strada(27,38,3).
strada(27,39,20).
strada(27,41,12).
strada(27,46,12).
strada(27,49,18).
strada(28,7,5).
strada(28,9,18).
strada(28,10,12).
strada(28,15,17).
strada(28,17,9).
strada(28,18,19).
strada(28,23,11).
strada(28,26,8).
strada(28,29,16).
strada(28,32,19).
strada(28,33,4).
strada(28,35,4).
strada(28,39,10).
strada(28,40,13).
strada(28,44,15).
strada(28,46,6).
strada(28,47,10).
strada(29,0,3).
strada(29,2,1).
strada(29,3,16).
strada(29,5,0).
strada(29,11,9).
strada(29,13,12).
strada(29,14,18).
strada(29,17,5).
strada(29,18,11).
strada(29,21,1).
strada(29,22,10).
strada(29,24,18).
strada(29,28,5).
strada(29,30,20).
strada(29,33,17).
strada(29,36,16).
strada(29,39,13).
strada(29,41,15).
strada(29,42,8).
strada(29,44,16).
strada(29,48,6).
strada(30,3,5).
strada(30,5,15).
strada(30,9,4).
strada(30,10,1).
strada(30,11,11).
strada(30,12,12).
strada(30,15,1).
strada(30,16,0).
strada(30,17,10).
strada(30,20,14).
strada(30,21,20).
strada(30,22,20).
strada(30,23,4).
strada(30,24,1).
strada(30,26,10).
strada(30,29,7).
strada(30,31,15).
strada(30,32,20).
strada(30,34,7).
strada(30,36,6).
strada(30,39,6).
strada(30,40,17).
strada(30,41,19).
strada(30,42,16).
strada(30,44,7).
strada(30,45,9).
strada(30,48,17).
strada(30,49,0).
strada(31,0,3).
strada(31,1,17).
strada(31,3,11).
strada(31,6,19).
strada(31,8,20).
strada(31,14,4).
strada(31,19,8).
strada(31,20,13).
strada(31,22,20).
strada(31,25,4).
strada(31,26,2).
strada(31,27,1).
strada(31,29,13).
strada(31,30,4).
strada(31,32,5).
strada(31,37,9).
strada(31,38,18).
strada(31,43,12).
strada(31,45,1).
strada(31,46,0).
strada(31,49,4).
strada(32,0,3).
strada(32,2,19).
strada(32,6,9).
strada(32,7,5).
strada(32,8,20).
strada(32,10,17).
strada(32,11,19).
strada(32,17,1).
strada(32,20,10).
strada(32,22,20).
strada(32,23,6).
strada(32,24,11).
strada(32,26,0).
strada(32,28,6).
strada(32,29,14).
strada(32,34,14).
strada(32,36,10).
strada(32,41,13).
strada(32,46,3).
strada(32,47,8).
strada(32,48,11).
strada(32,49,4).
strada(33,1,9).
strada(33,2,20).
strada(33,3,9).
strada(33,4,16).
strada(33,6,15).
strada(33,8,2).
strada(33,12,5).
strada(33,14,15).
strada(33,18,0).
strada(33,19,14).
strada(33,20,0).
strada(33,21,9).
strada(33,23,11).
strada(33,24,10).
strada(33,26,19).
strada(33,27,9).
strada(33,29,0).
strada(33,30,20).
strada(33,35,0).
strada(33,37,0).
strada(33,39,5).
strada(33,43,19).
strada(33,45,9).
strada(33,47,10).
strada(33,48,18).
strada(34,1,19).
strada(34,3,15).
strada(34,4,0).
strada(34,10,17).
strada(34,12,18).
strada(34,13,6).
strada(34,14,9).
strada(34,16,7).
strada(34,17,16).
strada(34,18,3).
strada(34,21,7).
strada(34,23,15).
strada(34,25,12).
strada(34,28,18).
strada(34,29,12).
strada(34,38,14).
strada(34,40,13).
strada(34,42,7).
strada(34,46,17).
strada(34,47,11).
strada(35,3,17).
strada(35,4,10).
strada(35,6,15).
strada(35,10,18).
strada(35,16,8).
strada(35,17,8).
strada(35,19,14).
strada(35,22,8).
strada(35,28,10).
strada(35,31,5).
strada(35,32,0).
strada(35,34,9).
strada(35,36,0).
strada(35,37,2).
strada(35,39,1).
strada(35,42,20).
strada(35,47,8).
strada(35,48,2).
strada(35,49,15).
strada(36,0,3).
strada(36,7,19).
strada(36,8,3).
strada(36,11,13).
strada(36,19,12).
strada(36,20,3).
strada(36,23,8).
strada(36,25,12).
strada(36,26,3).
strada(36,29,1).
strada(36,32,0).
strada(36,33,0).
strada(36,34,7).
strada(36,35,15).
strada(36,39,7).
strada(36,40,15).
strada(36,41,2).
strada(36,44,7).
strada(36,45,17).
strada(36,47,0).
strada(36,48,1).
strada(37,3,2).
strada(37,6,10).
strada(37,7,13).
strada(37,15,8).
strada(37,16,6).
strada(37,17,15).
strada(37,18,7).
strada(37,20,10).
strada(37,21,17).
strada(37,23,19).
strada(37,25,5).
strada(37,27,1).
strada(37,28,2).
strada(37,29,8).
strada(37,30,16).
strada(37,34,6).
strada(37,35,3).
strada(37,38,5).
strada(37,40,16).
strada(37,45,16).
strada(37,46,12).
strada(37,47,7).
strada(37,48,11).
strada(37,49,16).
strada(38,0,3).
strada(38,3,17).
strada(38,4,13).
strada(38,9,20).
strada(38,10,19).
strada(38,11,10).
strada(38,15,2).
strada(38,17,1).
strada(38,18,10).
strada(38,21,10).
strada(38,24,1).
strada(38,27,2).
strada(38,28,16).
strada(38,29,8).
strada(38,31,4).
strada(38,34,3).
strada(38,36,13).
strada(38,40,13).
strada(38,44,10).
strada(38,45,1).
strada(38,46,6).
strada(38,47,2).
strada(38,48,16).
strada(38,49,18).
strada(39,0,8).
strada(39,1,11).
strada(39,2,13).
strada(39,4,6).
strada(39,5,14).
strada(39,7,14).
strada(39,9,3).
strada(39,12,15).
strada(39,14,18).
strada(39,15,12).
strada(39,18,15).
strada(39,25,10).
strada(39,28,5).
strada(39,29,3).
strada(39,30,0).
strada(39,31,2).
strada(39,32,5).
strada(39,34,12).
strada(39,36,0).
strada(39,38,3).
strada(39,41,0).
strada(39,46,10).
strada(39,48,8).
strada(40,3,3).
strada(40,4,7).
strada(40,6,15).
strada(40,7,18).
strada(40,9,6).
strada(40,10,2).
strada(40,12,9).
strada(40,17,15).
strada(40,20,12).
strada(40,21,8).
strada(40,23,4).
strada(40,24,0).
strada(40,25,1).
strada(40,26,16).
strada(40,28,6).
strada(40,31,11).
strada(40,32,16).
strada(40,35,2).
strada(40,37,13).
strada(40,39,7).
strada(40,42,6).
strada(40,44,20).
strada(40,47,15).
strada(40,48,0).
strada(40,49,12).
strada(41,0,10).
strada(41,3,17).
strada(41,6,5).
strada(41,9,9).
strada(41,14,6).
strada(41,15,9).
strada(41,16,8).
strada(41,21,13).
strada(41,22,18).
strada(41,23,20).
strada(41,24,13).
strada(41,25,2).
strada(41,28,11).
strada(41,29,20).
strada(41,30,18).
strada(41,32,10).
strada(41,34,12).
strada(41,36,8).
strada(41,37,11).
strada(41,40,19).
strada(41,46,16).
strada(41,48,9).
strada(41,49,13).
strada(42,0,0).
strada(42,1,11).
strada(42,2,9).
strada(42,4,8).
strada(42,7,1).
strada(42,10,7).
strada(42,13,14).
strada(42,14,7).
strada(42,17,10).
strada(42,20,13).
strada(42,21,7).
strada(42,22,9).
strada(42,23,15).
strada(42,30,10).
strada(42,31,0).
strada(42,32,14).
strada(42,33,10).
strada(42,34,1).
strada(42,35,8).
strada(42,36,20).
strada(42,37,16).
strada(42,38,0).
strada(42,41,4).
strada(42,44,13).
strada(42,49,15).
strada(43,0,8).
strada(43,5,20).
strada(43,8,3).
strada(43,10,18).
strada(43,14,20).
strada(43,19,11).
strada(43,20,14).
strada(43,21,1).
strada(43,25,11).
strada(43,26,11).
strada(43,27,7).
strada(43,29,2).
strada(43,30,13).
strada(43,31,10).
strada(43,32,19).
strada(43,33,9).
strada(43,35,6).
strada(43,37,17).
strada(43,41,15).
strada(44,0,18).
strada(44,1,4).
strada(44,3,5).
strada(44,5,3).
strada(44,6,10).
strada(44,7,2).
strada(44,13,5).
strada(44,14,0).
strada(44,16,5).
strada(44,18,3).
strada(44,25,18).
strada(44,26,2).
strada(44,27,3).
strada(44,29,1).
strada(44,33,13).
strada(44,35,11).
strada(44,36,17).
strada(44,37,0).
strada(44,38,10).
strada(44,39,7).
strada(44,41,17).
strada(44,42,19).
strada(44,43,15).
strada(45,0,9).
strada(45,1,12).
strada(45,3,13).
strada(45,5,11).
strada(45,6,0).
strada(45,9,10).
strada(45,10,1).
strada(45,11,9).
strada(45,13,17).
strada(45,14,11).
strada(45,17,11).
strada(45,19,5).
strada(45,20,8).
strada(45,21,1).
strada(45,22,18).
strada(45,23,12).
strada(45,32,13).
strada(45,33,15).
strada(45,34,10).
strada(45,35,5).
strada(45,42,14).
strada(45,43,0).
strada(45,44,6).
strada(45,47,4).
strada(46,0,3).
strada(46,1,8).
strada(46,3,1).
strada(46,4,7).
strada(46,9,8).
strada(46,10,4).
strada(46,11,14).
strada(46,12,11).
strada(46,13,10).
strada(46,15,10).
strada(46,17,2).
strada(46,19,13).
strada(46,20,19).
strada(46,25,12).
strada(46,27,16).
strada(46,28,14).
strada(46,32,7).
strada(46,35,0).
strada(46,37,0).
strada(46,45,4).
strada(46,47,11).
strada(47,0,3).
strada(47,1,17).
strada(47,2,8).
strada(47,4,1).
strada(47,5,7).
strada(47,6,16).
strada(47,9,2).
strada(47,12,20).
strada(47,14,6).
strada(47,17,0).
strada(47,18,9).
strada(47,20,17).
strada(47,21,2).
strada(47,22,3).
strada(47,23,1).
strada(47,27,12).
strada(47,35,6).
strada(47,36,12).
strada(47,40,1).
strada(47,41,15).
strada(47,42,2).
strada(47,43,11).
strada(47,44,17).
strada(47,45,0).
strada(47,48,2).
strada(48,0,3).
strada(48,1,2).
strada(48,4,16).
strada(48,5,3).
strada(48,6,13).
strada(48,8,6).
strada(48,9,12).
strada(48,10,19).
strada(48,13,11).
strada(48,15,14).
strada(48,16,5).
strada(48,19,0).
strada(48,21,20).
strada(48,23,13).
strada(48,25,20).
strada(48,26,1).
strada(48,29,5).
strada(48,31,14).
strada(48,32,15).
strada(48,33,17).
strada(48,35,3).
strada(48,36,2).
strada(48,38,3).
strada(48,40,6).
strada(48,43,18).
strada(48,45,1).
strada(48,49,9).
strada(49,1,7).
strada(49,4,14).
strada(49,6,6).
strada(49,10,5).
strada(49,11,6).
strada(49,13,5).
strada(49,18,8).
strada(49,25,18).
strada(49,27,4).
strada(49,29,9).
strada(49,33,17).
strada(49,34,3).
strada(49,38,14).
strada(49,39,3).
strada(49,40,20).
strada(49,41,7).
strada(49,42,13).
