Bruniera/ragionamento automatico/progetto/benchmark/minizinc/hard2.dzn
start = 1;
limit = 6;
n = 50;
m=[|-1,16,13,14,16,11,5,-1,-1,0,10,11,-1,-1,-1,-1,13,-1,5,-1,0,11,3,17,3,2,-1,0,-1,3,18,-1,-1,-1,-1,-1,19,19,-1,9,-1,10,-1,-1,20,-1,-1,-1,20,0,
|0,-1,-1,-1,-1,-1,-1,-1,-1,2,-1,-1,10,-1,5,11,-1,-1,11,6,-1,9,-1,-1,14,-1,-1,-1,-1,-1,-1,-1,19,3,-1,-1,-1,6,-1,-1,-1,16,13,-1,14,15,-1,-1,14,6,
|18,-1,-1,-1,18,1,3,2,-1,4,7,9,11,14,4,10,-1,17,-1,16,-1,-1,-1,-1,19,-1,-1,-1,-1,-1,-1,-1,9,-1,9,17,20,9,-1,12,6,17,-1,-1,-1,-1,18,-1,-1,-1,
|-1,-1,12,-1,5,9,-1,-1,-1,5,13,10,-1,-1,-1,-1,3,13,1,-1,-1,-1,-1,1,20,19,-1,-1,-1,15,-1,14,-1,-1,-1,8,4,6,17,-1,10,1,-1,-1,-1,-1,-1,3,-1,-1,
|0,-1,19,18,-1,-1,0,-1,-1,-1,0,-1,-1,-1,2,15,-1,16,16,-1,-1,10,-1,-1,-1,3,1,14,-1,16,3,-1,-1,-1,-1,9,15,-1,14,-1,-1,-1,-1,6,-1,5,14,-1,13,-1,
|-1,-1,-1,-1,2,-1,9,-1,-1,-1,-1,-1,18,-1,-1,11,1,-1,-1,9,-1,-1,-1,19,-1,-1,1,-1,-1,16,-1,-1,11,-1,11,7,-1,12,-1,-1,16,-1,12,-1,9,-1,-1,13,16,-1,
|20,4,2,-1,9,19,-1,-1,-1,1,11,-1,-1,-1,4,17,-1,-1,-1,-1,7,-1,-1,-1,14,20,20,11,-1,-1,-1,-1,6,-1,6,4,19,10,16,4,-1,-1,14,-1,17,9,10,-1,-1,-1,
|3,-1,12,18,11,16,-1,-1,-1,-1,-1,-1,-1,12,11,18,-1,4,7,-1,-1,-1,-1,-1,18,12,-1,-1,-1,-1,-1,14,13,0,18,10,-1,-1,-1,6,9,7,-1,-1,-1,1,11,-1,0,12,
|-1,-1,11,-1,-1,18,15,-1,-1,-1,-1,-1,-1,4,20,-1,3,-1,-1,-1,-1,15,15,-1,-1,-1,-1,13,-1,19,0,1,-1,8,-1,16,13,2,19,-1,-1,-1,7,-1,3,14,-1,12,6,-1,
|9,20,-1,-1,-1,-1,-1,6,-1,-1,12,-1,15,-1,12,-1,-1,7,-1,-1,-1,-1,18,17,-1,0,-1,-1,-1,2,4,17,-1,-1,18,19,-1,-1,-1,17,8,3,8,-1,-1,-1,16,0,17,3,
|-1,3,-1,-1,20,-1,5,8,-1,-1,-1,-1,4,-1,-1,-1,-1,-1,-1,-1,10,-1,-1,-1,-1,14,9,-1,-1,4,19,14,15,-1,-1,8,11,-1,-1,-1,2,16,-1,-1,-1,-1,20,8,-1,14,
|18,-1,-1,0,-1,-1,0,15,3,14,19,-1,-1,6,-1,8,-1,18,7,13,-1,-1,14,2,6,18,-1,-1,16,9,0,-1,-1,18,20,-1,2,-1,-1,7,7,3,14,-1,-1,13,6,19,16,-1,
|15,15,11,15,-1,-1,9,10,14,-1,-1,-1,-1,-1,11,0,-1,-1,-1,-1,-1,-1,-1,-1,-1,-1,20,-1,12,4,16,-1,-1,2,9,-1,-1,5,7,10,-1,18,-1,13,-1,-1,-1,-1,16,-1,
|7,-1,-1,20,8,15,-1,0,-1,11,-1,3,10,-1,5,-1,18,1,-1,-1,-1,12,9,0,-1,9,-1,14,-1,-1,-1,0,0,17,-1,3,-1,20,12,19,-1,-1,-1,20,9,9,-1,4,9,-1,
|-1,-1,11,18,9,-1,-1,-1,-1,6,12,-1,-1,3,-1,-1,-1,-1,-1,-1,4,15,-1,5,4,-1,5,-1,1,9,5,-1,-1,-1,-1,20,-1,-1,9,4,-1,8,-1,9,5,-1,-1,-1,-1,-1,
|-1,-1,-1,-1,12,-1,-1,-1,-1,2,-1,5,15,8,-1,-1,13,10,-1,-1,7,14,6,-1,-1,-1,13,16,11,-1,-1,-1,5,-1,18,-1,16,6,-1,-1,-1,3,-1,-1,-1,-1,-1,7,-1,-1,
|0,-1,20,-1,0,-1,-1,12,12,5,18,15,2,17,-1,9,-1,11,12,-1,-1,13,-1,17,-1,10,-1,-1,-1,-1,-1,-1,8,5,13,-1,-1,12,4,-1,-1,20,-1,15,18,18,17,15,15,-1,
|1,-1,-1,-1,-1,-1,-1,-1,14,4,1,-1,0,-1,-1,-1,-1,-1,-1,-1,-1,-1,-1,-1,0,-1,-1,-1,14,-1,11,13,9,9,0,6,5,-1,-1,3,-1,9,-1,12,-1,7,-1,-1,-1,6,
|12,-1,3,1,-1,8,16,-1,18,12,-1,-1,16,-1,-1,-1,-1,3,-1,-1,-1,-1,10,6,1,1,-1,8,16,7,5,-1,5,12,-1,-1,-1,-1,1,2,14,-1,11,-1,-1,-1,-1,-1,5,16,
|-1,-1,-1,-1,17,-1,-1,6,-1,-1,12,16,-1,-1,-1,10,-1,2,-1,-1,-1,10,-1,8,0,3,20,7,4,-1,-1,8,-1,16,-1,-1,13,-1,-1,-1,13,-1,20,-1,-1,20,7,9,10,-1,
|7,-1,-1,20,14,-1,-1,-1,20,-1,-1,-1,11,-1,12,16,7,-1,-1,-1,-1,16,-1,-1,-1,-1,0,19,-1,-1,-1,-1,-1,-1,5,-1,-1,-1,5,15,-1,17,-1,20,-1,5,-1,-1,2,6,
|-1,-1,14,-1,-1,-1,-1,-1,-1,-1,-1,-1,8,20,6,5,11,3,-1,-1,-1,-1,14,-1,14,0,-1,-1,7,11,-1,-1,-1,6,-1,-1,5,19,-1,3,-1,0,20,-1,4,-1,17,13,-1,14,
|2,-1,-1,3,4,-1,-1,5,9,15,4,-1,-1,20,-1,-1,-1,12,-1,-1,-1,-1,-1,-1,-1,9,-1,0,-1,10,-1,-1,4,12,-1,18,19,-1,17,-1,18,-1,-1,9,14,-1,-1,-1,-1,11,
|-1,5,-1,-1,17,-1,0,-1,-1,19,-1,0,-1,17,-1,2,-1,8,-1,19,-1,-1,11,-1,-1,7,-1,-1,-1,12,4,12,13,14,-1,5,-1,-1,3,7,-1,-1,20,8,5,4,-1,-1,-1,-1,
|-1,13,-1,15,19,-1,-1,12,0,11,11,-1,-1,14,-1,7,15,-1,-1,4,-1,7,-1,9,-1,-1,19,-1,5,-1,-1,-1,-1,-1,17,20,-1,-1,-1,-1,18,1,-1,-1,20,0,-1,3,4,-1,
|-1,-1,-1,-1,7,-1,-1,4,-1,-1,-1,-1,-1,9,-1,0,16,-1,-1,-1,14,11,1,-1,-1,-1,-1,-1,-1,7,-1,1,-1,-1,13,-1,-1,17,-1,9,0,10,8,-1,-1,-1,20,-1,-1,13,
|-1,-1,-1,-1,1,-1,-1,10,-1,-1,-1,3,-1,20,-1,-1,9,4,11,-1,-1,10,-1,-1,19,-1,-1,10,-1,-1,11,-1,-1,18,8,-1,12,6,-1,9,14,17,12,-1,19,9,16,14,12,-1,
|-1,-1,5,-1,-1,-1,-1,-1,17,1,3,1,-1,1,-1,0,2,-1,-1,9,7,-1,6,16,-1,8,-1,-1,11,8,-1,15,-1,-1,-1,-1,17,-1,3,20,-1,12,-1,-1,-1,-1,12,-1,-1,18,
|-1,-1,-1,-1,-1,-1,-1,5,-1,18,12,-1,-1,-1,-1,17,-1,9,19,-1,-1,-1,-1,11,-1,-1,8,-1,-1,16,-1,-1,19,4,-1,4,-1,-1,-1,10,13,-1,-1,-1,15,-1,6,10,-1,-1,
|3,-1,1,16,-1,0,-1,-1,-1,-1,-1,9,-1,12,18,-1,-1,5,11,-1,-1,1,10,-1,18,-1,-1,-1,5,-1,20,-1,-1,17,-1,-1,16,-1,-1,13,-1,15,8,-1,16,-1,-1,-1,6,-1,
|-1,-1,-1,5,-1,15,-1,-1,-1,4,1,11,12,-1,-1,1,0,10,-1,-1,14,20,20,4,1,-1,10,-1,-1,7,-1,15,20,-1,7,-1,6,-1,-1,6,17,19,16,-1,7,9,-1,-1,17,0,
|3,17,-1,11,-1,-1,19,-1,20,-1,-1,-1,-1,-1,4,-1,-1,-1,-1,8,13,-1,20,-1,-1,4,2,1,-1,13,4,-1,5,-1,-1,-1,-1,9,18,-1,-1,-1,-1,12,-1,1,0,-1,-1,4,
|3,-1,19,-1,-1,-1,9,5,20,-1,17,19,-1,-1,-1,-1,-1,1,-1,-1,10,-1,20,6,11,-1,0,-1,6,14,-1,-1,-1,-1,14,-1,10,-1,-1,-1,-1,13,-1,-1,-1,-1,3,8,11,4,
|-1,9,20,9,16,-1,15,-1,2,-1,-1,-1,5,-1,15,-1,-1,-1,0,14,0,9,-1,11,10,-1,19,9,-1,0,20,-1,-1,-1,-1,0,-1,0,-1,5,-1,-1,-1,19,-1,9,-1,10,18,-1,
|-1,19,-1,15,0,-1,-1,-1,-1,-1,17,-1,18,6,9,-1,7,16,3,-1,-1,7,-1,15,-1,12,-1,-1,18,12,-1,-1,-1,-1,-1,-1,-1,-1,14,-1,13,-1,7,-1,-1,-1,17,11,-1,-1,
|-1,-1,-1,17,10,-1,15,-1,-1,-1,18,-1,-1,-1,-1,-1,8,8,-1,14,-1,-1,8,-1,-1,-1,-1,-1,10,-1,-1,5,0,-1,9,-1,0,2,-1,1,-1,-1,20,-1,-1,-1,-1,8,2,15,
|3,-1,-1,-1,-1,-1,-1,19,3,-1,-1,13,-1,-1,-1,-1,-1,-1,-1,12,3,-1,-1,8,-1,12,3,-1,-1,1,-1,-1,0,0,7,15,-1,-1,-1,7,15,2,-1,-1,7,17,-1,0,1,-1,
|-1,-1,-1,2,-1,-1,10,13,-1,-1,-1,-1,-1,-1,-1,8,6,15,7,-1,10,17,-1,19,-1,5,-1,1,2,8,16,-1,-1,-1,6,3,-1,-1,5,-1,16,-1,-1,-1,-1,16,12,7,11,16,
|3,-1,-1,17,13,-1,-1,-1,-1,20,19,10,-1,-1,-1,2,-1,1,10,-1,-1,10,-1,-1,1,-1,-1,2,16,8,-1,4,-1,-1,3,-1,13,-1,-1,-1,13,-1,-1,-1,10,1,6,2,16,18,
|8,11,13,-1,6,14,-1,14,-1,3,-1,-1,15,-1,18,12,-1,-1,15,-1,-1,-1,-1,-1,-1,10,-1,-1,5,3,0,2,5,-1,12,-1,0,-1,3,-1,-1,0,-1,-1,-1,-1,10,-1,8,-1,
|-1,-1,-1,3,7,-1,15,18,-1,6,2,-1,9,-1,-1,-1,-1,15,-1,-1,12,8,-1,4,0,1,16,-1,6,-1,-1,11,16,-1,-1,2,-1,13,-1,7,-1,-1,6,-1,20,-1,-1,15,0,12,
|10,-1,-1,17,-1,-1,5,-1,-1,9,-1,-1,-1,-1,6,9,8,-1,-1,-1,-1,13,18,20,13,2,-1,-1,11,20,18,-1,10,-1,12,-1,8,11,-1,-1,19,-1,-1,-1,-1,-1,16,-1,9,13,
|0,11,9,-1,8,-1,-1,1,-1,-1,7,-1,-1,14,7,-1,-1,10,-1,-1,13,7,9,15,-1,-1,-1,-1,-1,-1,10,0,14,10,1,8,20,16,0,-1,-1,4,-1,-1,13,-1,-1,-1,-1,15,
|8,-1,-1,-1,-1,20,-1,-1,3,-1,18,-1,-1,-1,20,-1,-1,-1,-1,11,14,1,-1,-1,-1,11,11,7,-1,2,13,10,19,9,-1,6,-1,17,-1,-1,-1,15,-1,-1,-1,-1,-1,-1,-1,-1,
|18,4,-1,5,-1,3,10,2,-1,-1,-1,-1,-1,5,0,-1,5,-1,3,-1,-1,-1,-1,-1,-1,18,2,3,-1,1,-1,-1,-1,13,-1,11,17,0,10,7,-1,17,19,15,-1,-1,-1,-1,-1,-1,
|9,12,-1,13,-1,11,0,-1,-1,10,1,9,-1,17,11,-1,-1,11,-1,5,8,1,18,12,-1,-1,-1,-1,-1,-1,-1,-1,13,15,10,5,-1,-1,-1,-1,-1,-1,14,0,6,-1,-1,4,-1,-1,
|3,8,-1,1,7,-1,-1,-1,-1,8,4,14,11,10,-1,10,-1,2,-1,13,19,-1,-1,-1,-1,12,-1,16,14,-1,-1,-1,7,-1,-1,0,-1,0,-1,-1,-1,-1,-1,-1,-1,4,-1,11,-1,-1,
|3,17,8,-1,1,7,16,-1,-1,2,-1,-1,20,-1,6,-1,-1,0,9,-1,17,2,3,1,-1,-1,-1,12,-1,-1,-1,-1,-1,-1,-1,6,12,-1,-1,-1,1,15,2,11,17,0,-1,-1,2,-1,
|3,2,-1,-1,16,3,13,-1,6,12,19,-1,-1,11,-1,14,5,-1,-1,0,-1,20,-1,13,-1,20,1,-1,-1,5,-1,14,15,17,-1,3,2,-1,3,-1,6,-1,-1,18,-1,1,-1,-1,-1,9,
|-1,7,-1,-1,14,-1,6,-1,-1,-1,5,6,-1,5,-1,-1,-1,-1,8,-1,-1,-1,-1,-1,-1,18,-1,4,-1,9,-1,-1,-1,17,3,-1,-1,-1,14,3,20,7,13,-1,-1,-1,-1,-1,-1,-1,
|]
;